c 1=x_0 2=x_1 3=x_2 4=x_3 5=W2_0 6=W2_1 7=W2_2 8=W2_3 9=W1_0 10=W1_1 11=W1_2 12=W1_3 13=W0_0 14=W0_1 15=W0_2 16=W0_3 17=u_0 18=u_1 19=u_2 20=u_3 21=W5_0 22=W5_1 23=W5_2 24=W5_3 25=W4_0 26=W4_1 27=W4_2 28=W4_3 29=r_0 30=r_1 31=r_2 32=r_3 33=W3_0 34=W3_1 35=W3_2 36=W3_3 
p cnf 36 116
1 2 3 4 0
-1 -2 0
-1 -3 0
-1 -4 0
-2 -3 0
-2 -4 0
-3 -4 0
5 6 7 8 0
-5 -6 0
-5 -7 0
-5 -8 0
-6 -7 0
-6 -8 0
-7 -8 0
-1 8 0
-2 7 0
-3 6 0
-4 5 0
9 10 11 12 0
-9 -10 0
-9 -11 0
-9 -12 0
-10 -11 0
-10 -12 0
-11 -12 0
12 0
13 14 15 16 0
-13 -14 0
-13 -15 0
-13 -16 0
-14 -15 0
-14 -16 0
-15 -16 0
-9 -5 13 0
-9 -6 14 0
-9 -7 15 0
-9 -8 16 0
-10 -5 14 0
-10 -6 13 0
-10 -7 16 0
-10 -8 15 0
-11 -5 15 0
-11 -6 16 0
-11 -7 13 0
-11 -8 14 0
-12 -5 16 0
-12 -6 15 0
-12 -7 14 0
-12 -8 13 0
17 18 19 20 0
-17 -18 0
-17 -19 0
-17 -20 0
-18 -19 0
-18 -20 0
-19 -20 0
21 22 23 24 0
-21 -22 0
-21 -23 0
-21 -24 0
-22 -23 0
-22 -24 0
-23 -24 0
-17 21 0
-18 22 0
-19 23 0
-20 24 0
25 26 27 28 0
-25 -26 0
-25 -27 0
-25 -28 0
-26 -27 0
-26 -28 0
-27 -28 0
-21 26 0
-22 25 0
-23 28 0
-24 27 0
29 30 31 32 0
-29 -30 0
-29 -31 0
-29 -32 0
-30 -31 0
-30 -32 0
-31 -32 0
33 34 35 36 0
-33 -34 0
-33 -35 0
-33 -36 0
-34 -35 0
-34 -36 0
-35 -36 0
-25 -29 33 0
-25 -30 34 0
-25 -31 34 0
-25 -32 34 0
-26 -29 34 0
-26 -30 34 0
-26 -31 34 0
-26 -32 34 0
-27 -29 34 0
-27 -30 34 0
-27 -31 35 0
-27 -32 35 0
-28 -29 34 0
-28 -30 34 0
-28 -31 35 0
-28 -32 36 0
-13 33 0
13 -33 0
-14 34 0
14 -34 0
-15 35 0
15 -35 0
-16 36 0
16 -36 0
